
Gurobi 12.0.0 (linux64, gurobi_cl) logging started Sat Nov 15 12:57:11 2025

Set parameter Username
Set parameter LicenseID to value 2602100
Set parameter LogFile to value "gurobi.log"
Using license file /home/sergio/gurobi.lic
Academic license - for non-commercial use only - expires 2025-12-19

Gurobi 12.0.0 (linux64, gurobi_cl) logging started Sat Nov 15 12:57:16 2025

Set parameter Username
Set parameter LicenseID to value 2602100
Set parameter LogFile to value "gurobi.log"
Using license file /home/sergio/gurobi.lic
Academic license - for non-commercial use only - expires 2025-12-19

Gurobi 12.0.0 (linux64, gurobi_cl) logging started Sat Nov 15 12:57:39 2025

Set parameter Username
Set parameter LicenseID to value 2602100
Set parameter LogFile to value "gurobi.log"
Using license file /home/sergio/gurobi.lic
Academic license - for non-commercial use only - expires 2025-12-19

Gurobi Optimizer version 12.0.0 build v12.0.0rc1 (linux64 - "Linux Mint 22")
Copyright (c) 2024, Gurobi Optimization, LLC


Error 10003: Unable to open file 'misc07.mps' for input


Gurobi 12.0.0 (linux64, gurobi_cl) logging started Sat Nov 15 13:25:36 2025

Set parameter Username
Set parameter LicenseID to value 2602100
Set parameter LogFile to value "gurobi.log"
Using license file /home/sergio/gurobi.lic
Academic license - for non-commercial use only - expires 2025-12-19
